Version identifier: 20.1.0.0 | 2020-11-10 | 9bedb6d68
Tried aggregator 2 times.
MIP Presolve eliminated 2487 rows and 1330 columns.
MIP Presolve modified 6308 coefficients.
Aggregator did 246 substitutions.
Reduced MIP has 3676 rows, 2839 columns, and 12072 nonzeros.
Reduced MIP has 500 binaries, 2339 generals, 0 SOSs, and 0 indicators.
Presolve time = 0.04 sec. (14.42 ticks)
Probing fixed 80 vars, tightened 708 bounds.
Probing time = 0.01 sec. (1.51 ticks)
Tried aggregator 1 time.
Detecting symmetries...
MIP Presolve eliminated 1560 rows and 80 columns.
MIP Presolve modified 181 coefficients.
Reduced MIP has 2116 rows, 2759 columns, and 6912 nonzeros.
Reduced MIP has 712 binaries, 2047 generals, 0 SOSs, and 0 indicators.
Presolve time = 0.02 sec. (8.10 ticks)
Probing time = 0.00 sec. (0.59 ticks)
Clique table members: 5.
MIP emphasis: balance optimality and feasibility.
MIP search method: dynamic search.
Parallel mode: deterministic, using up to 24 threads.
Root relaxation solution time = 0.04 sec. (7.96 ticks)

        Nodes                                         Cuts/
   Node  Left     Objective  IInf  Best Integer    Best Bound    ItCnt     Gap

*     0+    0                           65.0000        0.0000           100.00%
      0     0        0.0000    89       65.0000        0.0000      633  100.00%
*     0+    0                           17.0000        0.0000           100.00%
      0     0        0.0000    87       17.0000     Cuts: 227      768  100.00%
      0     0        0.0000    59       17.0000     Cuts: 222      903  100.00%
      0     0        0.0000    79       17.0000      Cuts: 43      952  100.00%
      0     0        0.0000    79       17.0000       Cuts: 6      961  100.00%
*     0+    0                           15.0000        0.0000           100.00%
      0     2        0.0000    59       15.0000        7.0000      961   53.33%
Elapsed time = 1.17 sec. (249.85 ticks, tree = 0.02 MB, solutions = 3)
*   114    53      integral     0       14.0000        7.0000    16572   50.00%
*   402+   31                           13.0000        7.0000            46.15%

Implied bound cuts applied:  244
Mixed integer rounding cuts applied:  23
Zero-half cuts applied:  137
Lift and project cuts applied:  20
Gomory fractional cuts applied:  60

Root node processing (before b&c):
  Real time             =    0.99 sec. (249.00 ticks)
Parallel b&c, 24 threads:
  Real time             =    1.23 sec. (192.25 ticks)
  Sync time (average)   =    0.72 sec.
  Wait time (average)   =    0.00 sec.
                          ------------
Total (root+branch&cut) =    2.22 sec. (441.24 ticks)

Solution status = Optimal
Solution LB = 13
Solution UB = 13
Runtime = 2.22395 seconds
	Command being timed: "/home/min/git_repos/CS598MEBProject/CNT-ILP/build/cnt -s 2 ./output/k8_n40/simC_c1_k8_n40_u2_s3_del02.input-left.cnp"
	User time (seconds): 32.21
	System time (seconds): 0.39
	Percent of CPU this job got: 1436%
	Elapsed (wall clock) time (h:mm:ss or m:ss): 0:02.27
	Average shared text size (kbytes): 0
	Average unshared data size (kbytes): 0
	Average stack size (kbytes): 0
	Average total size (kbytes): 0
	Maximum resident set size (kbytes): 205792
	Average resident set size (kbytes): 0
	Major (requiring I/O) page faults: 0
	Minor (reclaiming a frame) page faults: 77272
	Voluntary context switches: 12252
	Involuntary context switches: 4527
	Swaps: 0
	File system inputs: 0
	File system outputs: 16
	Socket messages sent: 0
	Socket messages received: 0
	Signals delivered: 0
	Page size (bytes): 4096
	Exit status: 0
